120
150
53
54
60
42
59
43
48
58
44
54
48
48
48
50
44
56
52
49
49
48
43
59
44
58
48
51
55
59
43
53
48
49
48
47
57
49
44
48
60
60
44
46
44
54
45
51
44
60
48
42
58
43
49
49
48
51
51
41
58
51
55
51
48
51
44
42
51
41
58
46
58
53
51
57
42
58
46
51
49
53
60
49
48
51
54
49
49
52
44
58
43
58
49
49
46
55
44
57
44
54
51
51
49
46
45
45
43
54
56
41
40
51
49
50
48
60
60
49
42
41
